NAME : PR135A.110939.tour
COMMENT : Cost = 0_110939
COMMENT : Found by LKH [Keld Helsgaun] Sun Sep 17 16:52:42 2017
TYPE : TOUR
DIMENSION : 135
TOUR_SECTION
1
6
17
19
7
8
42
61
66
54
49
43
60
59
44
36
33
24
3
14
21
25
26
15
9
10
11
12
4
13
22
34
23
45
58
57
68
56
47
35
46
48
55
67
78
82
70
79
80
69
81
90
102
91
92
104
112
111
122
127
123
133
126
125
132
124
115
103
114
113
116
101
89
93
94
77
88
71
76
75
72
84
86
96
95
83
87
100
121
129
128
134
117
105
110
109
118
108
107
119
131
130
135
120
106
99
97
98
85
73
74
65
53
51
38
40
39
52
64
63
62
41
50
37
32
20
16
2
27
28
31
29
30
18
5
-1
EOF
